4 8 1 1 111111
15 2 8 2 2 3 2 8 5 5 7 2 3 3 7 3 3 8 3 2 4 3 5 3 2 3 5 7 7 1 2 1 6 6 4 3 8 3 1 1 3 1 2 1 1 7 7 2 8 5 2 6 3 8 1 5 6 7 3 2 1 6 5 3 2 8 5 7 7 2 2 5 3 5 2 1 1 7 1 3 8 6 1 3 6 1 
15 2 1 6 4 1 3 8 5 5 2 6 3 2 1 2 6 6 2 8 3 7 6 2 2 1 5 3 2 3 4 7 3 3 8 6 1 7 6 4 2 4 5 5 1 2 1 1 5 1 2 2 1 3 5 2 8 7 2 7 3 1 3 4 1 6 2 2 8 2 7 7 2 2 4 5 6 3 8 6 1 2 7 3 
15 2 3 1 7 7 2 5 1 7 5 2 8 5 7 7 2 3 7 7 5 2 8 1 3 3 2 4 5 5 2 2 8 5 1 5 2 1 1 4 5 2 3 4 6 2 2 8 1 5 4 3 2 1 3 2 5 2 2 6 5 7 3 2 4 3 7 7 2 8 6 3 5 2 8 4 6 7 
15 2 8 6 4 4 2 1 5 2 2 2 2 4 7 4 2 8 4 7 4 3 3 4 4 2 7 1 2 8 4 7 3 2 5 3 6 2 2 3 2 5 1 2 4 1 5 4 3 1 2 2 6 7 4 2 8 3 4 7 2 2 6 7 2 2 4 5 7 2 2 8 6 3 6 2 1 7 5 7 
0 3 1 3 8 
1 0 3 5 6 7 
0 3 3 7 8 
2 2 0 3 5 6 11 
0 3 5 6 7 
3 1 3 4 3 9 10 12 
3 3 1 4 3 9 10 12 
3 1 2 4 2 9 11 
2 2 0 2 10 11 
3 5 6 7 2 13 14 
3 6 5 8 2 13 14 
3 3 8 7 2 12 14 
3 5 11 6 1 13 
3 9 12 10 0 
3 11 10 9 0 
0 3 17 18 19 
0 3 17 18 19 
2 15 16 3 20 21 22 
2 16 15 3 20 21 22 
2 16 15 3 20 21 22 
3 17 18 19 3 24 25 27 
3 19 18 17 3 24 25 26 
3 18 17 19 2 24 26 
0 2 25 26 
3 21 20 22 1 29 
3 21 20 23 2 28 29 
3 23 21 22 3 27 28 29 
2 26 20 0 
2 26 25 0 
3 24 26 25 0 
0 2 33 34 
0 2 33 34 
0 2 33 34 
3 30 31 32 3 35 36 38 
3 30 31 32 3 35 36 38 
2 33 34 3 37 40 41 
2 33 34 3 37 40 41 
2 35 36 2 39 43 
2 34 33 3 39 40 41 
2 37 38 2 42 44 
3 38 35 36 3 42 43 44 
3 38 36 35 3 42 43 44 
3 39 41 40 0 
3 37 40 41 0 
3 39 40 41 0 
0 3 46 48 53 
1 45 3 47 52 54 
1 46 3 51 57 59 
1 45 3 51 52 54 
0 3 53 54 59 
0 3 51 52 53 
3 47 50 48 1 55 
3 46 48 50 3 55 58 59 
3 45 49 50 3 55 57 58 
3 48 46 49 3 56 57 58 
3 52 53 51 1 56 
2 55 54 0 
3 53 54 47 0 
3 54 53 52 0 
3 52 47 49 0 
